certificates/rado_a6_c164_N27.cnf
c Rad2 upper bound instance: x1 + 6*x2 - x3 = 164, interval [1,27]
p cnf 27 130
1 3 27 0
-1 -3 -27 0
2 4 27 0
-2 -4 -27 0
3 5 27 0
-3 -5 -27 0
4 6 27 0
-4 -6 -27 0
5 7 27 0
-5 -7 -27 0
6 8 27 0
-6 -8 -27 0
1 9 26 0
-1 -9 -26 0
7 9 27 0
-7 -9 -27 0
2 10 26 0
-2 -10 -26 0
8 10 27 0
-8 -10 -27 0
3 11 26 0
-3 -11 -26 0
9 11 27 0
-9 -11 -27 0
4 12 26 0
-4 -12 -26 0
10 12 27 0
-10 -12 -27 0
5 13 26 0
-5 -13 -26 0
11 13 27 0
-11 -13 -27 0
6 14 26 0
-6 -14 -26 0
12 14 27 0
-12 -14 -27 0
1 15 25 0
-1 -15 -25 0
7 15 26 0
-7 -15 -26 0
13 15 27 0
-13 -15 -27 0
2 16 25 0
-2 -16 -25 0
8 16 26 0
-8 -16 -26 0
14 16 27 0
-14 -16 -27 0
3 17 25 0
-3 -17 -25 0
9 17 26 0
-9 -17 -26 0
15 17 27 0
-15 -17 -27 0
4 18 25 0
-4 -18 -25 0
10 18 26 0
-10 -18 -26 0
16 18 27 0
-16 -18 -27 0
5 19 25 0
-5 -19 -25 0
11 19 26 0
-11 -19 -26 0
17 19 27 0
-17 -19 -27 0
6 20 25 0
-6 -20 -25 0
12 20 26 0
-12 -20 -26 0
18 20 27 0
-18 -20 -27 0
1 21 24 0
-1 -21 -24 0
7 21 25 0
-7 -21 -25 0
13 21 26 0
-13 -21 -26 0
19 21 27 0
-19 -21 -27 0
2 22 24 0
-2 -22 -24 0
8 22 25 0
-8 -22 -25 0
14 22 26 0
-14 -22 -26 0
20 22 27 0
-20 -22 -27 0
3 23 24 0
-3 -23 -24 0
9 23 25 0
-9 -23 -25 0
15 23 26 0
-15 -23 -26 0
21 23 27 0
-21 -23 -27 0
4 24 0
-4 -24 0
10 24 25 0
-10 -24 -25 0
16 24 26 0
-16 -24 -26 0
22 24 27 0
-22 -24 -27 0
5 24 25 0
-5 -24 -25 0
11 25 0
-11 -25 0
17 25 26 0
-17 -25 -26 0
23 25 27 0
-23 -25 -27 0
6 24 26 0
-6 -24 -26 0
12 25 26 0
-12 -25 -26 0
18 26 0
-18 -26 0
24 26 27 0
-24 -26 -27 0
1 23 27 0
-1 -23 -27 0
7 24 27 0
-7 -24 -27 0
13 25 27 0
-13 -25 -27 0
19 26 27 0
-19 -26 -27 0
25 27 0
-25 -27 0
