certificates/rado_a6_c164_N27.drat
-27 0
25 0
-11 0
9 0
13 0
-23 0
21 0
1 0
-24 0
-7 0
-26 0
-15 0
4 0
16 0
22 0
6 0
0
